1 88 72 42 35 68 13 5 38 4 56 66 36 7 8 46 33 60 28 21 34 3 31 62 25 24 90 15 45 54 96 41 67 69 57 14 29 6 44 79 82 63 55 91 16 30 83 12 93 70 47 49 32 23 22 19 50 18 100 65 59 48 86 61 94 97 17 99 40 78 76 53 39 80 95 74 92 37 84 75 85 64 98 43 71 77 9 87 81 11 89 51 52 10 20 26 58 2 73 27
